%oldchk=/home/natrosa/Tr/Tr-Cz-OPT-FREQ.chk
%chk=Tr-Cz-OPT-FREQ-CAT.chk
%mem=5500MB
%nprocshared=24
# opt=tight freq  wb97xd/def2SVP Geom=Check Guess=Read 

cation

1 2

