%oldchk=/home/natrosa/TRIAZINAS/Tr-Ph-m-Th-Cz/Tr-Ph-m-Th-Cz-TD-DFT-OPT-S1.chk
%chk=Tr-Ph-m-Th-Cz-TD-DFT-OPT-S1-Freq.chk
%mem=5500MB
# wb97xd/def2SVP Freq Geom=Check Guess=Read

TD-DFT

0 1 

