%oldchk=/home/natrosa/Tr/Tr-Ph-para-Cz-OPT-FREQ-CONT.chk
%chk=Tr-Ph-para-Cz-OPT-FREQ-CONT-2.chk
%mem=5500MB
%nprocshared=24
# opt=(tight) freq wb97xd/def2SVP Geom=Check Guess=Read nosymm scf=xqc

Title Card Required

0 1

