%oldchk=/home/natrosa/teste-TM/Tr-Ph-p-Th-Cz-OPT-ANION-cont-2.chk
%chk=/home/natrosa/teste-TM/Tr-Ph-p-Th-Cz-OPT-ANION-cont-3.chk
%mem=5500MB
# opt freq wb97xd/def2SVP Geom=Check Guess=Read int=ultrafine scf=yqc nosymm

Title Card Required

-1 2

