%chk=Tr-Ph-para-Cz-TD-DFT-OPT-FREQ-T1-cont-2.chk
%nprocshared=36
%mem=5000MB
# opt=(calcfc,tight) scf=qc int=ultrafine freq td=(triplets,root=1) wb97xd/def2svp nosymm

Vertical absorption

0 1
 C                 -1.07910800    0.72311900   -0.08454700
 C                  1.22478700    0.53001300   -0.04044000
 C                 -0.13802700   -1.33650500    0.04837500
 N                  1.13659500   -0.79114400    0.03769700
 N                  0.15268400    1.32897500   -0.10448300
 N                 -1.26623200   -0.59770400   -0.01070500
 N                 -5.68810200    4.04435400   -0.28790100
 N                  6.35551900    2.93505300   -0.09190800
 N                 -0.68068300   -6.98010100    0.38327800
 C                  7.39463400    2.63800200   -0.97779000
 C                  8.51074000    3.44542100   -0.66974600
 C                  7.41643300    1.73831100   -2.04581400
 C                  9.67613500    3.33840700   -1.43466800
 C                  8.58845400    1.64845400   -2.79101300
 H                  6.54390500    1.13039600   -2.28820500
 C                  9.71010200    2.43624500   -2.49036200
 H                 10.54443000    3.95960300   -1.20393500
 H                  8.63204000    0.95190100   -3.63110400
 H                 10.61314800    2.33949000   -3.09608500
 C                  6.80048700    3.93115600    0.78310200
 C                  6.13304300    4.52896800    1.85530900
 C                  8.12997300    4.27413100    0.45697800
 C                  6.81984600    5.49424100    2.58586900
 H                  5.11084000    4.24529400    2.10882500
 C                  8.79942000    5.24523100    1.20764900
 C                  8.13832400    5.85360600    2.26702500
 H                  6.32097400    5.97844600    3.42819400
 H                  9.82867300    5.51696800    0.96301500
 H                  8.64643000    6.61535900    2.86140500
 C                  0.00908500   -7.92055300   -0.39485800
 C                 -0.39047700   -9.22100000   -0.01871000
 C                  0.92178500   -7.70702000   -1.43368800
 C                  0.15073600  -10.33150300   -0.67241200
 C                  1.45204300   -8.82943700   -2.06485500
 H                  1.20524600   -6.70197500   -1.74655800
 C                  1.07693200  -10.12689300   -1.68922800
 H                 -0.15434300  -11.34143200   -0.39066800
 H                  2.16971400   -8.68937600   -2.87596900
 H                  1.51180300  -10.98368900   -2.20746000
 C                 -1.52401500   -7.68059300    1.25783800
 C                 -2.36820000   -7.18528000    2.25712600
 C                 -1.37619300   -9.06717700    1.03684600
 C                 -3.08940800   -8.11053200    3.00706000
 H                 -2.45666100   -6.11666000    2.45302700
 C                 -2.10578900   -9.97627600    1.80776100
 C                 -2.96583900   -9.48922300    2.78559700
 H                 -3.75812500   -7.74813200    3.79065700
 H                 -1.99575700  -11.05061300    1.64623400
 H                 -3.54524100  -10.18591500    3.39444200
 C                 -6.75059600    3.93095000   -1.18524200
 C                 -7.69960000    4.91856800   -0.91804000
 C                 -6.91980500    3.03955100   -2.26159600
 C                 -8.83867500    5.02958800   -1.69500000
 C                 -8.06639800    3.15655600   -3.01516100
 H                 -6.15593800    2.29221500   -2.47717500
 C                 -9.03490000    4.13440900   -2.74379100
 H                 -9.58843500    5.80090600   -1.50394900
 H                 -8.22793300    2.47820300   -3.85684400
 H                 -9.93278900    4.20468300   -3.35928400
 C                 -5.96344500    5.10864600    0.56073700
 C                 -5.22415200    5.58701500    1.65405300
 C                 -7.19210200    5.67760500    0.22255300
 C                 -5.73619900    6.65499600    2.35576300
 H                 -4.28002400    5.11553800    1.92905500
 C                 -7.69868300    6.74136700    0.94674200
 C                 -6.96107800    7.24764300    2.01438500
 H                 -5.18277300    7.05073300    3.21122000
 H                 -8.66154300    7.19465900    0.69968500
 H                 -7.34336900    8.09214300    2.58951700
 C                 -0.26962600   -2.74928500    0.13289600
 C                  0.90269200   -3.62421800    0.21729500
 C                 -1.58932900   -3.38863800    0.13757100
 C                  0.75459800   -4.97461100    0.29432800
 H                  1.88991600   -3.16570400    0.23302300
 C                 -1.70899100   -4.74045300    0.22181700
 H                 -2.46524000   -2.74729400    0.05345100
 C                 -0.54751900   -5.59203900    0.30252100
 H                 -2.69697900   -5.20424300    0.19290900
 C                  2.55264700    1.15545300   -0.05624000
 C                  2.69111400    2.52706400   -0.15577500
 C                  3.69498500    0.38382300    0.02971400
 C                  3.94253300    3.11741400   -0.17678200
 H                  1.80699400    3.15881300   -0.22911200
 C                  4.94969200    0.96533600    0.02582200
 H                  3.61371100   -0.69965500    0.11285700
 C                  5.08177200    2.33870600   -0.08135300
 H                  4.02842200    4.20046100   -0.27886600
 C                 -2.26309700    1.58326900   -0.14513300
 C                 -3.55157200    1.02189500   -0.10527500
 C                 -2.13674600    2.98236500   -0.24074500
 C                 -4.68521000    1.82573400   -0.15312400
 H                 -3.65520200   -0.06118200   -0.01919700
 C                 -3.26296900    3.79601700   -0.29375700
 H                 -1.14509100    3.43453900   -0.28566200
 C                 -4.54472200    3.22347800   -0.24730600
 H                 -5.67659200    1.37620400   -0.08645900
 H                  5.83754500    0.33748900    0.11792400
 H                 -3.14438600    4.87547400   -0.39712600
 H                  1.63767800   -5.61036100    0.38459400

