%oldchk=/home/natrosa/TRIAZINAS/Tr-Ph-m-Th-Cz/Tr-Ph-m-Th-Cz-OPT-FREQ.chk
%chk=Tr-Ph-m-Th-Cz-ANION.chk
%mem=5500MB
# opt freq wb97xd/def2SVP Geom=Check Guess=Read

ANION

-1 2

