%chk=Tr-Ph-meta-Cz-OPT-FREQ-ANI-com.chk
%mem=5500MB
%nprocshared=16
# opt=tight freq wb97xd/def2SVP nosymm int=ultrafine

Title Card Required

0 1
 C                  0.93141700   -0.91112900    0.10414500
 C                 -1.25921800   -0.35544000    0.00701900
 C                  0.31402800    1.26470400    0.13622700
 N                 -0.97711800    0.94640300    0.05962500
 N                 -0.33630500   -1.31575100    0.02565100
 N                  1.29967600    0.36753300    0.16217500
 N                  2.26938700   -5.64013100   -0.10765100
 N                 -6.01967100    0.86580200   -0.22370000
 N                  3.75296500    4.77562200    0.34335800
 C                 -6.06371500    1.93600000   -1.11293500
 C                 -7.20034100    2.72556400   -0.82925100
 C                 -5.19911200    2.25091500   -2.16561400
 C                 -7.46787500    3.85921700   -1.60290600
 C                 -5.48637600    3.38295000   -2.91998200
 H                 -4.33114500    1.63027700   -2.39283400
 C                 -6.60606000    4.18450500   -2.64350900
 H                 -8.34370200    4.47682300   -1.39209000
 H                 -4.82594500    3.65078400   -3.74766100
 H                 -6.80119400    5.06697400   -3.25585600
 C                 -7.11167000    0.95774500    0.63422900
 C                 -7.46839700    0.13687800    1.70824400
 C                 -7.87262600    2.09809200    0.29209300
 C                 -8.61481200    0.46875900    2.42169600
 H                 -6.86654000   -0.73030100    1.98421500
 C                 -9.02178300    2.41042700    1.02473600
 C                 -9.38981200    1.59043300    2.08472600
 H                 -8.91518500   -0.15699000    3.26500700
 H                 -9.61786600    3.28889300    0.76801100
 H                -10.28491300    1.82077700    2.66565000
 C                  4.69901400    4.27842800    1.23555200
 C                  5.95348100    4.86258600    0.95103900
 C                  4.53593600    3.37672300    2.29181200
 C                  7.06737400    4.52655700    1.72659600
 C                  5.65852500    3.05828300    3.04801000
 H                  3.56286700    2.93993200    2.52108400
 C                  6.91469300    3.62170000    2.77026100
 H                  8.04172600    4.97234500    1.51481800
 H                  5.55711100    2.35610200    3.87847500
 H                  7.77518300    3.34865700    3.38409500
 C                  4.38328500    5.66945800   -0.51768100
 C                  3.85527700    6.38554200   -1.59611700
 C                  5.75100100    5.75498600   -0.17389400
 C                  4.71988100    7.20630500   -2.31178100
 H                  2.80370600    6.29995200   -1.87392600
 C                  6.60024400    6.58788300   -0.90870900
 C                  6.07849300    7.31375700   -1.97277400
 H                  4.33155900    7.77665000   -3.15845700
 H                  7.65891200    6.66220400   -0.65058500
 H                  6.72875800    7.96901100   -2.55546100
 C                  2.78947200   -6.53105600   -1.04214300
 C                  2.16819500   -7.78907300   -0.87590500
 C                  3.73967100   -6.31242900   -2.04407800
 C                  2.51945300   -8.85223400   -1.71327600
 C                  4.07150500   -7.38493500   -2.86445500
 H                  4.20100600   -5.33386400   -2.18523700
 C                  3.47395100   -8.64543900   -2.70197500
 H                  2.04617200   -9.82916000   -1.59264200
 H                  4.81154000   -7.23994300   -3.65455900
 H                  3.75930500   -9.46596000   -3.36307600
 C                  1.31518700   -6.30640800    0.65616200
 C                  0.54521000   -5.83472000    1.72379700
 C                  1.22247200   -7.64491800    0.21390900
 C                 -0.33230200   -6.72658400    2.33036600
 H                  0.63024000   -4.80503800    2.07421400
 C                  0.33269200   -8.52267200    0.84076000
 C                 -0.44402400   -8.05720300    1.89497500
 H                 -0.94518100   -6.38228000    3.16632900
 H                  0.25308500   -9.55940300    0.50641100
 H                 -1.14400000   -8.73026100    2.39378700
 C                  0.67976600    2.70239100    0.20274400
 C                  2.02760600    3.07103400    0.21621700
 C                 -0.31177100    3.68879500    0.24609900
 C                  2.38723100    4.41470700    0.30726100
 H                  2.79471000    2.29912700    0.15364800
 C                  0.05049000    5.03041600    0.32365900
 H                 -1.36004400    3.39011800    0.22316500
 C                  1.39356100    5.39737100    0.36962000
 H                 -0.72194100    5.80053100    0.36685200
 H                  1.68218700    6.44631100    0.46014300
 C                 -2.68637200   -0.75681400   -0.08021300
 C                 -3.04307300   -2.10835500   -0.14688900
 C                 -3.68071100    0.22512800   -0.08670000
 C                 -4.38514200   -2.46597200   -0.23688100
 H                 -2.25964500   -2.86638400   -0.12966700
 C                 -5.02305200   -0.13568100   -0.19218500
 H                 -3.39762800    1.27496600   -0.00924300
 C                 -5.37537600   -1.48690000   -0.27454800
 H                 -4.66418100   -3.51964400   -0.29613600
 H                 -6.42739200   -1.76098700   -0.37439800
 C                  1.99325500   -1.94870300    0.13668100
 C                  3.33406100   -1.59058100    0.31640200
 C                  1.64852000   -3.29376200   -0.02025300
 C                  4.31422400   -2.57798600    0.35602600
 H                  3.59278500   -0.53753500    0.42993000
 C                  2.63105700   -4.28117700    0.03159200
 H                  0.60556400   -3.56417400   -0.18544400
 C                  3.96844700   -3.92139000    0.22829400
 H                  5.35944300   -2.30069300    0.50515400
 H                  4.73006300   -4.70140800    0.28608500

