%oldchk=/home/natrosa/Tr/Tr-Ph-para-Th-OPT-FREQ.chk
%chk=Tr-Ph-para-Th-OPT-FREQ-CONT.chk
%mem=5500MB
%nprocshared=24
# opt=(calcfc,tight) freq wb97xd/def2SVP Geom=Check Guess=Read nosymm

Title Card Required

0 1
 
