%oldchk=/home/natrosa/Tr/Tr-Ph-p-Th/Tr-Ph-para-Th-OPT-FREQ-CONT.chk
%chk=Tr-Ph-para-Th-OPT-FREQ-ANI.chk
%mem=5500MB
%nprocshared=24
# opt=tight freq  wb97xd/def2SVP Geom=Check Guess=Read nosymm 

cation

-1 2


