%oldchk=/home/natrosa/teste-TM/Tr-Ph-p-Th-Cz-OPT-FREQ-TD-DFT-T1-cont-2.chk
%chk=/home/natrosa/teste-TM/Tr-Ph-p-Th-Cz-OPT-FREQ-TD-DFT-T1-cont-3.chk
%mem=5500MB
# wb97xd/def2SVP td=(triplets,root=1) Opt Freq nosymm Geom=Check Guess=Read scf=qc

Title Card Required

0 1

