%chk=Tr-Ph-para-Cz-TD-DFT-OPT-S1-cont.chk
%mem=5000MB
# opt=tight freq td=(root=1) wb97xd/def2svp nosymm scf=qc

Vertical absorption

0 1
 C                 -1.07404200    0.76624500   -0.06975600
 C                  1.20862300    0.55183100   -0.02285200
 C                 -0.11813200   -1.31663800    0.05938100
 N                  1.13205800   -0.79660000    0.04999500
 N                  0.13597000    1.37362900   -0.08462800
 N                 -1.24476200   -0.57237800    0.00106100
 N                 -5.71731100    4.04260600   -0.30275500
 N                  6.37656600    2.92344200   -0.06042300
 N                 -0.66777800   -6.96893200    0.36803800
 C                  7.40793200    2.60392600   -0.92689400
 C                  8.53817000    3.40566100   -0.63103600
 C                  7.40934300    1.68292500   -1.98171300
 C                  9.69356600    3.27036100   -1.38463400
 C                  8.57988300    1.56306700   -2.72541400
 H                  6.52584700    1.08816700   -2.21547800
 C                  9.71101700    2.33919700   -2.43354700
 H                 10.57161500    3.88188000   -1.16652100
 H                  8.61353300    0.85306600   -3.55371200
 H                 10.61306200    2.21950000   -3.03622500
 C                  6.81277800    3.91959400    0.79635400
 C                  6.12453500    4.52460700    1.85527300
 C                  8.15320500    4.25669500    0.48435200
 C                  6.80131200    5.49679500    2.58629800
 H                  5.10099500    4.24028300    2.10120900
 C                  8.80851800    5.22739600    1.22555800
 C                  8.12283400    5.85132700    2.27827400
 H                  6.29200600    5.98822300    3.41721400
 H                  9.84131100    5.49689700    0.99491700
 H                  8.62384200    6.61856800    2.87120200
 C                 -0.06303600   -7.88647300   -0.47429900
 C                 -0.43266500   -9.19808400   -0.08626900
 C                  0.76055100   -7.64713500   -1.58121200
 C                  0.04448700  -10.28708800   -0.79980300
 C                  1.22829600   -8.75455400   -2.28284600
 H                  1.01988600   -6.63280100   -1.88577100
 C                  0.88288700  -10.05897000   -1.90023000
 H                 -0.23256300  -11.30300000   -0.51046700
 H                  1.87349300   -8.60121900   -3.14981200
 H                  1.26804500  -10.90505200   -2.47215500
 C                 -1.42535200   -7.65800400    1.29960500
 C                 -2.17696400   -7.14760400    2.36520000
 C                 -1.31357400   -9.05028800    1.06165600
 C                 -2.83723400   -8.06316900    3.17959900
 H                 -2.23701500   -6.07534200    2.55387600
 C                 -1.97951100   -9.94477100    1.88571300
 C                 -2.74786500   -9.44329300    2.94602100
 H                 -3.43235400   -7.69680800    4.01805300
 H                 -1.90184400  -11.02021600    1.71266400
 H                 -3.27913600  -10.13365000    3.60363000
 C                 -6.75705300    3.91348300   -1.20767400
 C                 -7.73477400    4.90549600   -0.94748900
 C                 -6.88641300    3.00727200   -2.26751200
 C                 -8.86815100    4.97978200   -1.74290300
 C                 -8.03191200    3.09962200   -3.05277300
 H                 -6.11683800    2.26285900   -2.47364500
 C                 -9.01497500    4.06673500   -2.79682500
 H                 -9.62934100    5.73932300   -1.55256200
 H                 -8.16294000    2.40660100   -3.88581900
 H                 -9.90159200    4.11072000   -3.43185500
 C                 -5.99911200    5.10093300    0.54463400
 C                 -5.25407000    5.57229500    1.63259100
 C                 -7.24470600    5.67340100    0.18646900
 C                 -5.77260500    6.64949100    2.34540900
 H                 -4.30814300    5.10935000    1.91481700
 C                 -7.74276600    6.74596700    0.91071400
 C                 -6.99670500    7.23583600    1.99200400
 H                 -5.21494100    7.04088400    3.19819800
 H                 -8.70128500    7.19641700    0.64442300
 H                 -7.37394200    8.08001900    2.57195700
 C                 -0.25874200   -2.76814500    0.13870800
 C                  0.89067600   -3.60430500    0.22142000
 C                 -1.54859400   -3.37130200    0.13510200
 C                  0.76344900   -4.97187600    0.30504100
 H                  1.87604700   -3.13781500    0.23226100
 C                 -1.68848500   -4.73819200    0.20129300
 H                 -2.42579400   -2.72712900    0.06338900
 C                 -0.53145200   -5.56458800    0.29188800
 H                 -2.67997500   -5.19693900    0.17194800
 C                  2.53587300    1.16055500   -0.03446500
 C                  2.68346000    2.57506300   -0.12681600
 C                  3.70546900    0.35024100    0.04748000
 C                  3.93054400    3.15374700   -0.14480400
 H                  1.78602600    3.19001700   -0.19781000
 C                  4.95771000    0.91808400    0.04751000
 H                  3.58679600   -0.73070600    0.12577900
 C                  5.09324400    2.33381300   -0.05277600
 H                  4.03836000    4.23695600   -0.24181300
 C                 -2.26643400    1.60737100   -0.13344300
 C                 -3.56552200    1.02547100   -0.10177000
 C                 -2.14966500    3.02322800   -0.22649000
 C                 -4.69257100    1.81287100   -0.14960300
 H                 -3.64984800   -0.05903200   -0.02248200
 C                 -3.26931500    3.82049700   -0.29196700
 H                 -1.15282300    3.46367700   -0.25912300
 C                 -4.56368200    3.22821100   -0.24917100
 H                 -5.68703900    1.36258400   -0.09806100
 H                  5.85032600    0.29386200    0.13694100
 H                 -3.17368800    4.90486900   -0.38848900
 H                  1.64823300   -5.60716300    0.39410600

