%oldchk=/home/natrosa/teste-TM/Tr-Ph-p-Th-Cz-OPT-FREQ-TD-DFT-S1-cont-2.chk
%chk=/home/natrosa/teste-TM/Tr-Ph-p-Th-Cz-OPT-FREQ-TD-DFT-S1-cont-3.chk
%mem=5500MB
# wb97xd/def2SVP TD=(Root=1) Opt Freq nosymm Geom=Check Guess=Read scf=qc int=ultrafine

Title Card Required

0 1

