%oldchk=/home/natrosa/teste-TM/Tr-Ph-p-Th-Cz-OPT-FREQ-cont-3.chk
%chk=/home/natrosa/teste-TM/Tr-Ph-p-Th-Cz-FREQ.chk
%mem=5500MB
# freq wb97xd/def2SVP nosymm guess=read Geom=Check

Title Card Required

0 1

