%oldchk=/home/natrosa/TRIAZINAS/Tr-Ph-m-Th-Cz/Tr-Ph-m-Th-Cz-OPT-FREQ.chk
%chk=Tr-Ph-m-Th-Cz-TD-DFT-OPT-S1.chk
%mem=5500MB
# wb97xd/def2SVP TD=(Root=1) Opt Freq nosymm scf=qc Geom=Check Guess=Read

TD-DFT

0 1 

