%oldchk=/home/natrosa/teste-TM/Tr-Ph-p-Th-Cz-OPT-CATION-cont.chk
%chk=/home/natrosa/teste-TM/Tr-Ph-p-Th-Cz-OPT-CATION-cont-2.chk
%mem=5500MB
# opt freq wb97xd/def2SVP Geom=Check Guess=Read int=ultrafine scf=qc nosymm

Title Card Required

1 2

