%oldchk=/home/natrosa/Tr/Tr-Th-OPT-FREQ-CONT-2.chk
%chk=Tr-Th-OPT-FREQ-ANI.chk
%mem=5500MB
%nprocshared=24
# opt=tight freq  wb97xd/def2SVP Geom=Check Guess=Read 

cation

-1 2

