%oldchk=/home/natrosa/teste-TM/Tr-Th-Cz-OPT-FREQ-CATION-cont.chk
%chk=/home/natrosa/teste-TM/Tr-Th-Cz-OPT-FREQ-CATION-cont-3.chk
%nproc=36
%mem=5500MB
# opt freq wb97xd/def2SVP Geom=Check Guess=Read int=ultrafine scf=qc nosymm

Title Card Required

1 2

