%oldchk=/home/natrosa/teste-TM/Tr-Th-Cz-OPT-FREQ.chk
%chk=/home/natrosa/teste-TM/Tr-Th-Cz-TD-DFT.chk
%mem=5500MB
# td=(nstates=10) wb97xd/def2SVP pop=full iop(9/40=3) GFINPUT Geom=Check Guess=Read

Title Card Required

0 1

