%oldchk=\home\natrosa\Tr\Tr-Th-OPT-FREQ-CONT.chk
%chk=Tr-Th-OPT-FREQ-TD-DFT-TRIPLET.chk
%mem=5500MB
%nprocshared=24
# td=(triplets,nstates=10) wb97xd nosymm guess=read def2svp

Title Card Required

0 1
 C                 -1.22968700   -0.42945100   -0.00133100
 C                  0.24169200    1.28096600    0.00252900
 C                  0.98723900   -0.84848500    0.00048700
 N                  1.28624200    0.45268800    0.00255800
 N                 -1.03465200    0.88931500    0.00063900
 N                 -0.25236300   -1.33901300   -0.00151400
 C                  2.09621800   -1.79924600    0.00042400
 C                  3.44220000   -1.51652300    0.00241600
 S                  1.80138700   -3.50266600   -0.00237600
 C                  4.24154700   -2.68919400    0.00168800
 H                  3.81662100   -0.49331500    0.00432400
 C                  3.48275600   -3.83299800   -0.00085100
 H                  5.33139000   -2.68972400    0.00298400
 H                  3.83727600   -4.86296100   -0.00191000
 C                 -2.60762200   -0.91422700   -0.00341900
 C                 -3.03616900   -2.22110200   -0.00555300
 S                 -3.93511400    0.19323900   -0.00337000
 C                 -4.45139000   -2.32667400   -0.00715900
 H                 -2.33735500   -3.05706900   -0.00590100
 C                 -5.06224200   -1.09747000   -0.00620400
 H                 -4.99704900   -3.27008100   -0.00894000
 H                 -6.13141600   -0.88927800   -0.00704400
 C                  0.51049700    2.71674900    0.00471200
 C                 -0.40766500    3.74079000    0.00514400
 S                  2.13298000    3.31350600    0.00714000
 C                  0.20786600    5.01949600    0.00746500
 H                 -1.48089500    3.55276000    0.00381300
 C                  1.57781300    4.93463200    0.00873100
 H                 -0.33685500    5.96344800    0.00817000
 H                  2.29221400    5.75689900    0.01054400

