%chk=triazine-thiphnene-TD-DFT.chk
# td=(nstates=10) cam-b3lyp/6-31+g(d,p) pop=full iop(9/40=3) GFINPUT

Title Card Required

0 1
 C                 -0.10866100    1.30554800   -0.00005100
 C                  1.18508500   -0.55887800   -0.00000700
 C                 -1.07640900   -0.74704300   -0.00005500
 N                  0.11534500   -1.36996300   -0.00002800
 N                  1.12864300    0.78467800   -0.00001900
 N                 -1.24400700    0.58490800   -0.00005900
 C                 -2.27314900   -1.58057500   -0.00002900
 C                 -2.34352600   -2.95873900   -0.00003200
 S                 -3.86683600   -0.86531300    0.00007600
 C                 -3.67860500   -3.44393400   -0.00000100
 H                 -1.45656100   -3.57993900   -0.00009000
 C                 -4.60519500   -2.42786400    0.00002300
 H                 -3.94312500   -4.49502000   -0.00002000
 H                 -5.68375700   -2.51418000    0.00001000
 C                 -0.23223100    2.75870300   -0.00002900
 C                 -1.39066700    3.50862700    0.00004800
 S                  1.18390600    3.78144000   -0.00010400
 C                 -1.14348600    4.90743000    0.00007000
 H                 -2.37210500    3.05106600    0.00009200
 C                  0.19972000    5.20199700    0.00005300
 H                 -1.92158000    5.66196200    0.00014000
 H                  0.66410300    6.17927900    0.00006400
 C                  2.50534800   -1.17838100    0.00001000
 C                  3.73386400   -0.54985100    0.00012000
 S                  2.68320500   -2.91608400   -0.00007900
 C                  4.82184600   -1.46315800    0.00012700
 H                  3.82784400    0.52893900    0.00018100
 C                  4.40553400   -2.77375200    0.00005900
 H                  5.86429700   -1.16643900    0.00020600
 H                  5.01979800   -3.66449600    0.00003700

 