%chk=TRIAZINE-TD-DFT-TRIPLET.chk
%mem=5500MB
# td=(triplets,nstates=10) wb97xd/def2SVP pop=full iop(9/40=3) GFINPUT

Vertical absorption

0 1
C        1.2539994555   -0.320796838    -0.0000143349
C       -1.009649577    -0.9903271817    0.0000367914
C       -0.2951304889    1.2604039322   -0.0000176003
N       -1.2177181386    0.3598746506    0.0000138889
N        0.3345018742   -1.2238164043    0.0000173891
N        1.0471004502    1.026500158    -0.0000346801
H       -1.7827667561   -1.7479825965    0.0000578982
H       -0.6248435014    2.3079206424   -0.000031761
H        2.2944796822   -0.6717673627   -0.000025591

